PROBLEM NAME: eil51_n5
KNAPSACK DATA TYPE: uncorrelated, similar weights
DIMENSION: 5
NUMBER OF ITEMS: 20
CAPACITY OF KNAPSACK: 1091491
MIN SPEED: 0.1
MAX SPEED: 1
RENTING RATIO: 13.26
EDGE_WEIGHT_TYPE: CEIL_2D
NODE_COORD_SECTION	(INDEX, X, Y):
1	31	32
2	36	16
3	62	63
4	5	6
5	30	15
ITEMS SECTION	(INDEX, PROFIT, WEIGHT, ASSIGNED NODE NUMBER):
1	954	100041	3
2	938	100052	3
3	936	100010	3
4	851	100076	3
5	696	100024	3
6	675	100044	2
7	586	100072	2
8	539	100027	2
9	519	100052	2
10	486	100051	2
11	454	100047	5
12	355	100033	5
13	354	100012	5
14	354	100087	5
15	337	100081	5
16	280	100089	4
17	139	100063	4
18	58	100063	4
19	17	100092	4
20	4	100051	4
